RT is False
Default write of storage_offers_DA.csv just to have a file (but constraint should be inactive)
Reading model...
...model read.
creating competitive generators file...
...competitive generators recorded.
Loading data...
.. day-ahead data with real-time VRE data read.
Compiling instance...
...instance created.
Creating Offer Mitigation (model will solve as dispatch if TRUE)...
Solving...

Welcome to IBM(R) ILOG(R) CPLEX(R) Interactive Optimizer 12.9.0.0
  with Simplex, Mixed Integer & Barrier Optimizers
5725-A06 5725-A29 5724-Y48 5724-Y49 5724-Y54 5724-Y55 5655-Y21
Copyright IBM Corp. 1988, 2019.  All Rights Reserved.

Type 'help' for a list of available commands.
Type 'help' followed by a command name for more
information on commands.

CPLEX> Logfile 'cplex.log' closed.
Logfile 'C:\Users\llavin\Desktop\test919\logs\tmpmtzg6mbz.cplex.log' open.
CPLEX> New value for parallel optimization mode: -1
CPLEX> New value for mixed integer optimality gap tolerance: 0.01
CPLEX> New value for integrality tolerance: 1e-09
CPLEX> New value for feasibility tolerance: 0.01
CPLEX> New value for deterministic time limit in ticks: 75000
CPLEX> Problem 'C:\Users\llavin\Desktop\test919\logs\tmpowtyugeb.pyomo.lp' read.
Read time = 0.05 sec. (3.04 ticks)
CPLEX> Problem name         : C:\Users\llavin\Desktop\test919\logs\tmpowtyugeb.pyomo.lp
Objective sense      : Minimize
Variables            :   26081  [Nneg: 1,  Box: 21616,  Free: 4464]
Objective nonzeros   :    2496
Linear constraints   :   27515  [Less: 14006,  Greater: 4416,  Equal: 9093]
  Nonzeros           :   89267
  RHS nonzeros       :   12271

Variables            : Min LB: -5000.000        Max UB: 1000000.       
Objective nonzeros   : Min   : 15.73158         Max   : 124.0997       
Linear constraints   :
  Nonzeros           : Min   : 0.8500000        Max   : 3000.000       
  RHS nonzeros       : Min   : 0.2833333        Max   : 5000.000       
CPLEX> CPXPARAM_Parallel                                -1
CPXPARAM_Simplex_Tolerances_Feasibility          0.01
CPXPARAM_DetTimeLimit                            75000
CPXPARAM_MIP_Tolerances_MIPGap                   0.01
CPXPARAM_MIP_Tolerances_Integrality              1.0000000000000001e-09
Parallel mode: opportunistic, using up to 32 threads for concurrent optimization.
Tried aggregator 1 time.
LP Presolve eliminated 21353 rows and 15463 columns.
Aggregator did 773 substitutions.
Reduced LP has 5389 rows, 9845 columns, and 31806 nonzeros.
Presolve time = 0.05 sec. (30.44 ticks)
Symmetry aggregator did 5563 additional substitutions.

Iteration log . . .
Iteration:     1   Dual objective     =             0.000000
Perturbation started.
Iteration:   101   Dual objective     =             0.000000
Iteration:   335   Dual objective     =             1.229895
Iteration:   593   Dual objective     =             1.753815
Iteration:   851   Dual objective     =             1.892524
Iteration:  1064   Dual objective     =             2.008134
Iteration:  1332   Dual objective     =             2.054418
Iteration:  1578   Dual objective     =             2.082848
Iteration:  1796   Dual objective     =             2.104564
Iteration:  1995   Dual objective     =         11291.418162
Iteration:  2183   Dual objective     =         58197.567137
Iteration:  2404   Dual objective     =         81785.731981
Iteration:  2622   Dual objective     =         99683.282974
Iteration:  2956   Dual objective     =        113438.029429
Removing perturbation.
Dual superbasis not built.
Using devex.

Primal simplex solved model.


Primal simplex - Optimal:  Objective =  1.1363169331e+05
Solution time =    0.17 sec.  Iterations = 1709 (1093)
Deterministic time = 81.85 ticks  (475.90 ticks/sec)

CPLEX> Solution written to file 'C:\Users\llavin\Desktop\test919\logs\tmpmhst6t1v.cplex.sol'.
CPLEX> Exporting results... 
...storage offer mitigation file created
Converting model to MPEC...
...converted
NOTE: initial MIP solve with only storage competitive to get feasible solution
Solving...

Welcome to IBM(R) ILOG(R) CPLEX(R) Interactive Optimizer 12.9.0.0
  with Simplex, Mixed Integer & Barrier Optimizers
5725-A06 5725-A29 5724-Y48 5724-Y49 5724-Y54 5724-Y55 5655-Y21
Copyright IBM Corp. 1988, 2019.  All Rights Reserved.

Type 'help' for a list of available commands.
Type 'help' followed by a command name for more
information on commands.

CPLEX> Logfile 'cplex.log' closed.
Logfile 'C:\Users\llavin\Desktop\test919\logs\tmp_jqz12y7.cplex.log' open.
CPLEX> New value for parallel optimization mode: -1
CPLEX> New value for mixed integer optimality gap tolerance: 0.01
CPLEX> New value for integrality tolerance: 1e-09
CPLEX> New value for feasibility tolerance: 0.01
CPLEX> New value for deterministic time limit in ticks: 75000
CPLEX> Problem 'C:\Users\llavin\Desktop\test919\logs\tmpvn4e33ow.pyomo.lp' read.
Read time = 0.23 sec. (14.78 ticks)
CPLEX> Problem name         : C:\Users\llavin\Desktop\test919\logs\tmpvn4e33ow.pyomo.lp
Objective sense      : Maximize
Variables            :   53805  [Nneg: 1,  Box: 22000,  Free: 4464,
                                 Binary: 27340]
Objective nonzeros   :    8980
Linear constraints   :  123205  [Less: 41346,  Greater: 59096,  Equal: 22763]
  Nonzeros           :  291801
  RHS nonzeros       :   67429

Variables            : Min LB: -5000.000        Max UB: 1000000.       
Objective nonzeros   : Min   : 0.2833333        Max   : 772.4167       
Linear constraints   :
  Nonzeros           : Min   : 0.2833333        Max   : 1000000.       
  RHS nonzeros       : Min   : 0.2833333        Max   : 1000000.       
CPLEX> CPXPARAM_Parallel                                -1
CPXPARAM_Simplex_Tolerances_Feasibility          0.01
CPXPARAM_DetTimeLimit                            75000
CPXPARAM_MIP_Tolerances_MIPGap                   0.01
CPXPARAM_MIP_Tolerances_Integrality              1.0000000000000001e-09
Tried aggregator 3 times.
MIP Presolve eliminated 88631 rows and 18931 columns.
MIP Presolve added 3386 rows and 0 columns.
MIP Presolve modified 24876 coefficients.
Aggregator did 12995 substitutions.
Reduced MIP has 24965 rows, 21323 columns, and 71223 nonzeros.
Reduced MIP has 8414 binaries, 0 generals, 0 SOSs, and 0 indicators.
Presolve time = 0.30 sec. (176.22 ticks)
Probing fixed 389 vars, tightened 2809 bounds.
Probing time = 1.19 sec. (874.22 ticks)
Tried aggregator 2 times.
MIP Presolve eliminated 881 rows and 779 columns.
MIP Presolve modified 2192 coefficients.
Aggregator did 34 substitutions.
Reduced MIP has 24050 rows, 20510 columns, and 68575 nonzeros.
Reduced MIP has 8025 binaries, 0 generals, 0 SOSs, and 0 indicators.
Presolve time = 0.11 sec. (68.31 ticks)
Probing time = 0.03 sec. (15.95 ticks)
Clique table members: 6507.
MIP emphasis: balance optimality and feasibility.
MIP search method: dynamic search.
Parallel mode: opportunistic, using up to 32 threads.
Root relaxation solution time = 0.38 sec. (291.11 ticks)

        Nodes                                         Cuts/
   Node  Left     Objective  IInf  Best Integer    Best Bound    ItCnt     Gap

      0     0     6168.3467  1702                   6168.3467     6450         
      0     0     6168.3467     5                    Cuts: 10     6456         
      0     0     6168.3467     4                     Cuts: 3     6460         
      0     2     6168.3467     2                     Cuts: 4     6460         
Elapsed time = 7.91 sec. (4549.91 ticks, tree = 0.02 MB, solutions = 1)
*     3    20      integral     0     3531.8800     6165.3941     6615   74.56%
*   486   140      integral     0     5136.5252     6116.3586     7872   19.08%
    509    51     6116.3586     3     5136.5252     6116.3586     7240   19.08%
    902   127     6116.1977     4     5870.9208     6116.3586     9672    4.18%
   1132   203     6116.3586     2     5870.9208     6116.3586    33399    4.18%
   1357   206     6116.3586   223     5870.9208     6116.3586    33385    4.18%
   1560   202        cutoff           5870.9208     6116.3586    33453    4.18%
   1781   306        cutoff           5870.9208     6116.3586    33960    4.18%
   1999   390     6116.3586   164     5870.9208     6116.3586    34073    4.18%
   2213  1040     5873.6910     5     5870.9208     6116.3586    35046    4.18%
   2466  1045     6116.3586     3     5870.9208     6116.3586    35063    4.18%
*  3028   849      integral     0     6116.3586     6116.3586    34853    0.00%
*  3085   977      integral     0     6116.3586     6116.3586    34971    0.00%
*  3141   927      integral     0     6116.3586     6116.3586    34913    0.00%
   3145  1047     5873.6910     3     6116.3586     6116.3586    35064    0.00%
Elapsed time = 17.19 sec. (7665.19 ticks, tree = 6.78 MB, solutions = 9)

Cover cuts applied:  1
Implied bound cuts applied:  1
Flow cuts applied:  12
Gomory fractional cuts applied:  6

Root node processing (before b&c):
  Real time             =    6.62 sec. (4522.19 ticks)
Parallel b&c, 32 threads:
  Real time             =   10.98 sec. (3254.92 ticks)
  Sync time (average)   =    1.28 sec.
  Wait time (average)   =    0.00 sec.
                          ------------
Total (root+branch&cut) =   17.61 sec. (7777.11 ticks)

Solution pool: 9 solutions saved.

MIP - Integer optimal solution:  Objective =  6.1163586494e+03
Solution time =   17.66 sec.  Iterations = 35562  Nodes = 3148
Deterministic time = 7777.27 ticks  (440.49 ticks/sec)

CPLEX> Incumbent solution written to file 'C:\Users\llavin\Desktop\test919\logs\tmpm1ejrmyn.cplex.sol'.
CPLEX> NOTE: no warmstart specified for MIP iteration, default behavior is true
NOTE: resolving with all competitive generators using storage-only solution to warmstart
Solving...

Welcome to IBM(R) ILOG(R) CPLEX(R) Interactive Optimizer 12.9.0.0
  with Simplex, Mixed Integer & Barrier Optimizers
5725-A06 5725-A29 5724-Y48 5724-Y49 5724-Y54 5724-Y55 5655-Y21
Copyright IBM Corp. 1988, 2019.  All Rights Reserved.

Type 'help' for a list of available commands.
Type 'help' followed by a command name for more
information on commands.

CPLEX> Logfile 'cplex.log' closed.
Logfile 'C:\Users\llavin\Desktop\test919\logs\tmpelpd96ml.cplex.log' open.
CPLEX> New value for parallel optimization mode: -1
CPLEX> New value for mixed integer optimality gap tolerance: 0.01
CPLEX> New value for integrality tolerance: 1e-09
CPLEX> New value for feasibility tolerance: 0.01
CPLEX> New value for deterministic time limit in ticks: 75000
CPLEX> Problem 'C:\Users\llavin\Desktop\test919\logs\tmp9d_hxnt3.pyomo.lp' read.
Read time = 0.23 sec. (14.81 ticks)
CPLEX> MIP start file 'C:\Users\llavin\Desktop\test919\logs\tmp8gvhnevc.cplex.mst' read.
CPLEX> Problem name         : C:\Users\llavin\Desktop\test919\logs\tmp9d_hxnt3.pyomo.lp
Objective sense      : Maximize
Variables            :   54525  [Nneg: 1,  Box: 22720,  Free: 4464,
                                 Binary: 27340]
Objective nonzeros   :    9700
Linear constraints   :  123205  [Less: 41346,  Greater: 59096,  Equal: 22763]
  Nonzeros           :  291801
  RHS nonzeros       :   67429

Variables            : Min LB: -5000.000        Max UB: 1000000.       
Objective nonzeros   : Min   : 0.2833333        Max   : 772.4167       
Linear constraints   :
  Nonzeros           : Min   : 0.2833333        Max   : 1000000.       
  RHS nonzeros       : Min   : 0.2833333        Max   : 1000000.       
CPLEX> CPXPARAM_Parallel                                -1
CPXPARAM_Simplex_Tolerances_Feasibility          0.01
CPXPARAM_DetTimeLimit                            75000
CPXPARAM_MIP_Tolerances_MIPGap                   0.01
CPXPARAM_MIP_Tolerances_Integrality              1.0000000000000001e-09
Warning:  No solution found from 1 MIP starts.
Retaining values of one MIP start for possible repair.
Tried aggregator 3 times.
MIP Presolve eliminated 88631 rows and 19651 columns.
MIP Presolve added 3386 rows and 0 columns.
MIP Presolve modified 24876 coefficients.
Aggregator did 12995 substitutions.
Reduced MIP has 24965 rows, 21323 columns, and 71223 nonzeros.
Reduced MIP has 8414 binaries, 0 generals, 0 SOSs, and 0 indicators.
Presolve time = 0.30 sec. (176.59 ticks)
Probing fixed 389 vars, tightened 2809 bounds.
Probing time = 1.20 sec. (874.22 ticks)
Tried aggregator 2 times.
MIP Presolve eliminated 881 rows and 779 columns.
MIP Presolve modified 2192 coefficients.
Aggregator did 34 substitutions.
Reduced MIP has 24050 rows, 20510 columns, and 68575 nonzeros.
Reduced MIP has 8025 binaries, 0 generals, 0 SOSs, and 0 indicators.
Presolve time = 0.11 sec. (68.31 ticks)
Probing time = 0.05 sec. (15.95 ticks)
Clique table members: 6507.
MIP emphasis: balance optimality and feasibility.
MIP search method: dynamic search.
Parallel mode: opportunistic, using up to 32 threads.
Root relaxation solution time = 0.38 sec. (291.11 ticks)

        Nodes                                         Cuts/
   Node  Left     Objective  IInf  Best Integer    Best Bound    ItCnt     Gap

      0     0     6168.3467  1702                   6168.3467     6450         
      0     0     6168.3467     5                    Cuts: 10     6456         
      0     0     6168.3467     4                     Cuts: 3     6460         
Repair heuristic found nothing.
      0     2     6168.3467     2                     Cuts: 4     6460         
Elapsed time = 8.02 sec. (4604.46 ticks, tree = 0.02 MB, solutions = 1)
*     3    18      integral     0     3370.5328     6165.3941     6558   82.92%
    466    88     6116.3586    10     5656.5684     6116.3586     7921    8.13%
    826   146        cutoff           5875.9306     6116.3586     8690    4.09%
   1136   282     6037.4536     4     5875.9306     6116.3586     9740    4.09%
   1346   341        cutoff           5875.9306     6116.3586    10211    4.09%
   1512   365        cutoff           5875.9306     6116.3586    10327    4.09%
   1663   370     6116.3586     2     5875.9306     6116.3586    10357    4.09%
   1797   374        cutoff           5875.9306     6116.3586    10410    4.09%
   1944   381        cutoff           5875.9306     6116.3586    10461    4.09%
   2088   419        cutoff           5875.9306     6116.3586    10602    4.09%
   2570   505     6073.5973     1     5875.9306     6116.3586    10848    4.09%
Elapsed time = 18.36 sec. (7710.56 ticks, tree = 2.13 MB, solutions = 3)
   2995   693     6116.3586     4     5875.9306     6116.3586    11298    4.09%
   3437   757        cutoff           5875.9306     6116.3586    11445    4.09%
   3816   854        cutoff           5875.9306     6116.3586    11661    4.09%
   4123   999     6116.3586     2     5875.9306     6116.3586    11976    4.09%
   4386  1093     6037.4536     2     5875.9306     6116.3586    12176    4.09%
   4632  1119     6073.5973     1     5875.9306     6116.3586    12245    4.09%
   4873  1128     6116.3586     2     5875.9306     6116.3586    12292    4.09%
   5086  1181        cutoff           5875.9306     6116.3586    12435    4.09%
   5293  1233     6073.5973     1     5875.9306     6116.3586    12697    4.09%
   5484  1235     6037.4536     2     5875.9306     6116.3586    12697    4.09%
Elapsed time = 35.55 sec. (17292.11 ticks, tree = 5.73 MB, solutions = 3)
   5658  1258        cutoff           5875.9306     6116.3586    12861    4.09%
   5812  1300        cutoff           5875.9306     6116.3586    13121    4.09%
   5981  1324        cutoff           5875.9306     6116.3586    13352    4.09%
   6139  1316     6112.9876     1     5875.9306     6116.3586    13222    4.09%
   6311  1322     6037.4536     2     5875.9306     6116.3586    13312    4.09%
   6474  1339     6073.5973     1     5875.9306     6116.3586    13466    4.09%
   6628  1362     6037.4536     2     5875.9306     6116.3586    13707    4.09%
   6790  1357        cutoff           5875.9306     6116.3586    13675    4.09%
   6934  1390        cutoff           5875.9306     6116.3586    14098    4.09%
   7074  1404     6037.4536     2     5875.9306     6116.3586    14229    4.09%
Elapsed time = 47.33 sec. (26868.20 ticks, tree = 6.52 MB, solutions = 4)
   7234  1408        cutoff           5875.9306     6116.3586    14258    4.09%
   7387  1411        cutoff           5875.9306     6116.3586    14292    4.09%
   7498  1429     6026.9117     4     5875.9306     6116.3586    14433    4.09%
*  7532  1413      integral     0     6112.9876     6116.3586    14392    0.06%
   7550  1446     6073.5973     1     6112.9876     6116.3586    14557    0.06%

Flow cuts applied:  11
Gomory fractional cuts applied:  6

Root node processing (before b&c):
  Real time             =    6.83 sec. (4574.31 ticks)
Parallel b&c, 32 threads:
  Real time             =   42.30 sec. (27084.47 ticks)
  Sync time (average)   =    0.74 sec.
  Wait time (average)   =    0.00 sec.
                          ------------
Total (root+branch&cut) =   49.13 sec. (31658.78 ticks)

Solution pool: 4 solutions saved.

MIP - Integer optimal, tolerance (0.01/1e-06):  Objective =  6.1129875652e+03
Current MIP best bound =  6.1163586494e+03 (gap = 3.37108, 0.06%)
Solution time =   49.14 sec.  Iterations = 15293  Nodes = 7571 (717)
Deterministic time = 31658.94 ticks  (644.25 ticks/sec)

CPLEX> Incumbent solution written to file 'C:\Users\llavin\Desktop\test919\logs\tmpt353jy1v.cplex.sol'.
CPLEX> Exporting results... 
